0
Node Left Objective IInf Best_Integer Best_Bound ItCnt Gap
0+ 0 nan nan 3416.1452 -341.6145 nan 110.00%
0+ 0 nan nan 70.5986 -341.6145 nan 583.88%
0 0 35.2235 6 70.5986 35.2235 90 50.11%
0 0 35.9460 9 70.5986 Fract:6 108 49.08%
0+ 0 nan nan 55.4433 35.9460 nan 35.17%
0 0 37.1576 9 55.4433 Cuts:12 118 32.98%
0+ 0 nan nan 53.9941 37.1576 nan 31.18%
0 0 37.5266 9 53.9941 Cuts:12 130 30.50%
0+ 0 nan nan 51.6018 37.5266 nan 27.28%
0 0 37.8159 11 51.6018 Cuts:12 138 26.72%
0 0 38.0595 9 51.6018 Cuts:8 153 26.24%
0 0 38.1942 9 51.6018 Cuts:9 161 25.98%
0+ 0 nan nan 48.6259 38.1942 nan 21.45%
0 0 38.3336 9 48.6259 LiftProj:7 191 21.17%
0 0 38.3663 9 48.6259 Cuts:8 204 21.10%
0+ 0 nan nan 48.4705 38.3663 nan 20.85%
0 0 38.4035 9 48.4705 LiftProj:7 213 20.77%
0 0 38.5557 11 48.4705 LiftProj:6 223 20.46%
0 0 38.5812 12 48.4705 LiftProj:6 236 20.40%
0 0 38.6267 11 48.4705 LiftProj:6 261 20.31%
0 0 38.6269 9 48.4705 LiftProj:6 269 20.31%
0 0 38.9182 11 48.4705 LiftProj:6 299 19.71%
0 0 39.0713 9 48.4705 Cuts:9 307 19.39%
0+ 0 nan nan 48.2059 39.0713 nan 18.95%
0 0 39.1088 11 48.2059 LiftProj:6 317 18.87%
0 0 39.1525 9 48.2059 LiftProj:8 326 18.78%
0 0 39.1998 13 48.2059 LiftProj:12 342 18.68%
0 0 39.2246 11 48.2059 LiftProj:8 349 18.63%
0 0 39.3134 9 48.2059 LiftProj:7 373 18.45%
0 0 39.4313 9 48.2059 LiftProj:7 378 18.20%
0 0 39.5213 11 48.2059 LiftProj:7 383 18.02%
0 0 39.6165 9 48.2059 LiftProj:7 389 17.82%
0 0 39.6862 9 48.2059 LiftProj:7 394 17.67%
0 0 39.7090 11 48.2059 LiftProj:10 400 17.63%
0 0 39.7768 9 48.2059 LiftProj:13 407 17.49%
0 0 39.7826 12 48.2059 LiftProj:7 414 17.47%
0 2 39.7826 12 48.2059 39.7826 414 17.47%
CPXPARAM_MIP_Cuts_Gomory-Disjunctive-LiftProj:Gomory 17
CPXPARAM_MIP_Cuts_Gomory-Disjunctive-LiftProj:Disjunctive 0
CPXPARAM_MIP_Cuts_Gomory-Disjunctive-LiftProj:LiftProj 0
1
Node Left Objective IInf Best_Integer Best_Bound ItCnt Gap
0+ 0 nan nan 3561.5109 -356.1511 nan 110.00%
0+ 0 nan nan -2.0853 -356.1511 nan ---
0 0 -37.4604 6 -2.0853 -37.4604 102 ---
0 0 -37.2272 11 -2.0853 Fract:5 117 ---
0+ 0 nan nan -19.0836 -37.2272 nan 95.07%
0 0 -35.6497 11 -19.0836 Cuts:14 132 86.81%
0+ 0 nan nan -21.9094 -35.6497 nan 62.71%
0 0 -35.1493 9 -21.9094 Cuts:12 140 60.43%
0 0 -34.8258 11 -21.9094 Cuts:9 154 58.95%
0 0 -34.7389 11 -21.9094 Cuts:11 189 58.56%
0 0 -34.7333 11 -21.9094 Cuts:9 198 58.53%
0 0 -34.7084 13 -21.9094 LiftProj:6 224 58.42%
0 0 -34.7084 14 -21.9094 LiftProj:6 236 58.42%
0 0 -34.5388 12 -21.9094 LiftProj:7 258 57.64%
0+ 0 nan nan -22.5875 -34.5388 nan 52.91%
0 0 -34.0917 17 -22.5875 Cuts:18 285 50.93%
0 0 -33.9776 16 -22.5875 Cuts:18 307 50.43%
0 0 -33.8670 13 -22.5875 LiftProj:8 340 49.94%
0 0 -33.8439 14 -22.5875 LiftProj:7 350 49.83%
0+ 0 nan nan -23.3668 -33.8439 nan 44.84%
0 0 -33.7783 15 -23.3668 Cuts:8 381 44.56%
0 0 -33.7206 14 -23.3668 Cuts:8 406 44.31%
0 0 -33.6958 13 -23.3668 LiftProj:13 430 44.20%
0 0 -33.5457 14 -23.3668 LiftProj:7 448 43.56%
0 0 -33.4906 13 -23.3668 LiftProj:9 458 43.33%
0 0 -33.4854 9 -23.3668 LiftProj:7 468 43.30%
0+ 0 nan nan -24.0095 -33.4854 nan 39.47%
0 2 -33.4854 9 -24.0095 -33.4712 468 39.41%
CPXPARAM_MIP_Cuts_Gomory-Disjunctive-LiftProj:Gomory 13
CPXPARAM_MIP_Cuts_Gomory-Disjunctive-LiftProj:Disjunctive 3
CPXPARAM_MIP_Cuts_Gomory-Disjunctive-LiftProj:LiftProj 0
2
Node Left Objective IInf Best_Integer Best_Bound ItCnt Gap
0+ 0 nan nan 4398.5936 -439.8594 nan 110.00%
0+ 0 nan nan 29.8310 -439.8594 nan ---
0 0 25.3990 4 29.8310 25.3990 102 14.86%
0 0 25.3990 2 29.8310 Fract:3 107 14.86%
0+ 0 nan nan 25.8717 25.3990 nan 1.83%
0 0 25.3990 2 25.8717 Fract:1 109 1.83%
0 0 25.3990 2 25.8717 Fract:1 111 1.83%
0 2 25.3990 2 25.8717 25.3990 111 1.83%
CPXPARAM_MIP_Cuts_Gomory-Disjunctive-LiftProj:Gomory 0
CPXPARAM_MIP_Cuts_Gomory-Disjunctive-LiftProj:Disjunctive 5
CPXPARAM_MIP_Cuts_Gomory-Disjunctive-LiftProj:LiftProj 0
3
Node Left Objective IInf Best_Integer Best_Bound ItCnt Gap
0+ 0 nan nan 3026.1120 -302.6112 nan 110.00%
0+ 0 nan nan -16.9664 -302.6112 nan ---
0 0 -21.3985 2 -16.9664 -21.3985 112 26.12%
0 0 -21.3985 2 -16.9664 Cuts:2 116 26.12%
0+ 0 nan nan -20.6187 -21.3985 nan 3.78%
0 0 -21.3985 2 -20.6187 Fract:2 118 3.78%
0+ 0 nan nan -20.6395 -21.3985 nan 3.68%
0 2 -21.3985 2 -20.6395 -21.3985 118 3.68%
CPXPARAM_MIP_Cuts_Gomory-Disjunctive-LiftProj:Gomory 1
CPXPARAM_MIP_Cuts_Gomory-Disjunctive-LiftProj:Disjunctive 3
CPXPARAM_MIP_Cuts_Gomory-Disjunctive-LiftProj:LiftProj 0
4
Node Left Objective IInf Best_Integer Best_Bound ItCnt Gap
0+ 0 nan nan 3445.8727 -344.5873 nan 110.00%
0+ 0 nan nan 61.1938 -344.5873 nan 663.11%
0 0 45.3867 8 61.1938 45.3867 98 25.83%
0 0 45.3941 10 61.1938 Fract:4 109 25.82%
0+ 0 nan nan 53.2355 45.3941 nan 14.73%
0 0 45.9615 9 53.2355 Fract:3 119 13.66%
0 0 46.2373 12 53.2355 Cuts:13 138 13.15%
0 0 46.3289 11 53.2355 Cuts:9 149 12.97%
0+ 0 nan nan 52.5285 46.3289 nan 11.80%
0 0 46.4449 11 52.5285 Cuts:8 161 11.58%
0 0 46.4801 11 52.5285 LiftProj:5 170 11.51%
0 0 46.4918 11 52.5285 Cuts:5 181 11.49%
0 0 46.5865 9 52.5285 LiftProj:4 189 11.31%
0 0 46.6207 9 52.5285 LiftProj:5 196 11.25%
0 0 46.7100 9 52.5285 LiftProj:6 204 11.08%
0 0 46.7220 9 52.5285 LiftProj:1 206 11.05%
0 0 46.7292 9 52.5285 LiftProj:4 211 11.04%
0 0 46.7632 11 52.5285 LiftProj:6 214 10.98%
0 0 46.8771 9 52.5285 LiftProj:6 224 10.76%
0 0 46.9872 9 52.5285 Cuts:9 236 10.55%
0 0 47.0642 9 52.5285 Cuts:4 240 10.40%
0 0 47.0842 9 52.5285 LiftProj:2 242 10.36%
0+ 0 nan nan 52.2361 47.0842 nan 9.86%
0 0 47.1996 11 52.2361 LiftProj:6 251 9.64%
0 0 47.2153 11 52.2361 LiftProj:2 252 9.61%
0 0 47.3453 11 52.2361 LiftProj:2 257 9.36%
0 0 47.3784 11 52.2361 LiftProj:8 262 9.30%
0 0 47.4595 11 52.2361 LiftProj:5 271 9.14%
0 0 47.4639 11 52.2361 LiftProj:1 272 9.14%
0 0 47.4927 9 52.2361 LiftProj:2 274 9.08%
0 0 47.5308 9 52.2361 Cuts:5 287 9.01%
0 0 47.5494 9 52.2361 LiftProj:3 291 8.97%
0 0 47.5670 9 52.2361 LiftProj:2 296 8.94%
0 0 47.5746 9 52.2361 LiftProj:3 301 8.92%
0 2 47.6994 7 52.2361 47.7127 301 8.66%
CPXPARAM_MIP_Cuts_Gomory-Disjunctive-LiftProj:Gomory 15
CPXPARAM_MIP_Cuts_Gomory-Disjunctive-LiftProj:Disjunctive 1
CPXPARAM_MIP_Cuts_Gomory-Disjunctive-LiftProj:LiftProj 0
5
Node Left Objective IInf Best_Integer Best_Bound ItCnt Gap
0+ 0 nan nan 3859.4816 -385.9482 nan 110.00%
0+ 0 nan nan -20.1319 -385.9482 nan ---
0 0 -35.9390 9 -20.1319 -35.9390 105 78.52%
0 0 -35.9330 10 -20.1319 Cuts:8 120 78.49%
0+ 0 nan nan -28.0524 -35.9330 nan 28.09%
0 0 -35.3643 12 -28.0524 Fract:3 131 26.07%
0 0 -35.0733 11 -28.0524 Cuts:15 153 25.03%
0+ 0 nan nan -28.7381 -35.0733 nan 22.04%
0 0 -34.9986 9 -28.7381 Cuts:8 164 21.78%
0 0 -34.8709 11 -28.7381 Cuts:12 180 21.34%
0+ 0 nan nan -29.0896 -34.8709 nan 19.87%
0 0 -34.8709 21 -29.0896 LiftProj:3 205 19.87%
0 0 -34.8649 21 -29.0896 LiftProj:3 219 19.85%
0 0 -34.8262 15 -29.0896 LiftProj:4 237 19.72%
0 0 -34.8064 16 -29.0896 LiftProj:6 255 19.65%
0 0 -34.7974 13 -29.0896 LiftProj:4 267 19.62%
0 0 -34.7636 13 -29.0896 LiftProj:2 280 19.51%
0 0 -34.7632 12 -29.0896 LiftProj:5 287 19.50%
0 2 -34.7301 11 -29.0896 -34.7301 287 19.39%
CPXPARAM_MIP_Cuts_Gomory-Disjunctive-LiftProj:Gomory 6
CPXPARAM_MIP_Cuts_Gomory-Disjunctive-LiftProj:Disjunctive 6
CPXPARAM_MIP_Cuts_Gomory-Disjunctive-LiftProj:LiftProj 0
6
Node Left Objective IInf Best_Integer Best_Bound ItCnt Gap
0+ 0 nan nan 3456.7371 -345.6737 nan 110.00%
0+ 0 nan nan 47.1585 -345.6737 nan 833.00%
0 0 45.2780 5 47.1585 45.2780 112 3.99%
0+ 0 nan nan 46.6268 45.2780 nan 2.89%
0 0 45.2780 2 46.6268 Cuts:5 118 2.89%
0+ 0 nan nan 45.3506 45.2780 nan 0.16%
0 2 45.2780 2 45.3506 45.2780 118 0.16%
CPXPARAM_MIP_Cuts_Gomory-Disjunctive-LiftProj:Gomory 2
CPXPARAM_MIP_Cuts_Gomory-Disjunctive-LiftProj:Disjunctive 3
CPXPARAM_MIP_Cuts_Gomory-Disjunctive-LiftProj:LiftProj 0
7
Node Left Objective IInf Best_Integer Best_Bound ItCnt Gap
0+ 0 nan nan 3747.8425 -374.7843 nan 110.00%
0+ 0 nan nan -30.7094 -374.7843 nan ---
0 0 -32.5899 4 -30.7094 -32.5899 99 6.12%
0+ 0 nan nan -31.7786 -32.5899 nan 2.55%
0 0 -32.5899 2 -31.7786 Fract:4 104 2.55%
0 0 -32.5899 2 -31.7786 Fract:1 106 2.55%
0 0 -32.5899 2 -31.7786 Fract:1 108 2.55%
0 2 -32.5899 2 -31.7786 -32.5899 108 2.55%
CPXPARAM_MIP_Cuts_Gomory-Disjunctive-LiftProj:Gomory 0
CPXPARAM_MIP_Cuts_Gomory-Disjunctive-LiftProj:Disjunctive 6
CPXPARAM_MIP_Cuts_Gomory-Disjunctive-LiftProj:LiftProj 0
8
Node Left Objective IInf Best_Integer Best_Bound ItCnt Gap
0+ 0 nan nan 4064.8026 -406.4803 nan 110.00%
0+ 0 nan nan 73.7169 -406.4803 nan 651.41%
0 0 57.5230 6 73.7169 57.5230 88 21.97%
0 0 57.5231 7 73.7169 Fract:4 98 21.97%
0+ 0 nan nan 71.2760 57.5231 nan 19.30%
0 0 57.9302 7 71.2760 Fract:5 107 18.72%
0+ 0 nan nan 63.0930 57.9302 nan 8.18%
0 0 58.4580 9 63.0930 Cuts:5 118 7.35%
0+ 0 nan nan 60.9699 58.4580 nan 4.12%
0 0 58.5441 11 60.9699 Cuts:8 125 3.98%
0 0 58.5720 11 60.9699 Cuts:3 128 3.93%
0 0 58.5823 9 60.9699 Cuts:4 135 3.92%
0 0 58.5855 11 60.9699 LiftProj:4 140 3.91%
0 2 58.5914 7 60.9699 58.5919 140 3.90%
CPXPARAM_MIP_Cuts_Gomory-Disjunctive-LiftProj:Gomory 4
CPXPARAM_MIP_Cuts_Gomory-Disjunctive-LiftProj:Disjunctive 9
CPXPARAM_MIP_Cuts_Gomory-Disjunctive-LiftProj:LiftProj 0
9
Node Left Objective IInf Best_Integer Best_Bound ItCnt Gap
0+ 0 nan nan 3914.8782 -391.4878 nan 110.00%
0+ 0 nan nan -3.0814 -391.4878 nan ---
0 0 -19.2753 6 -3.0814 -19.2753 94 525.54%
0 0 -19.2753 6 -3.0814 Fract:3 101 525.54%
0+ 0 nan nan -3.3365 -19.2753 nan 477.72%
0 0 -19.1600 7 -3.3365 Fract:4 111 474.26%
0+ 0 nan nan -13.2960 -19.1600 nan 44.10%
0 0 -18.5594 9 -13.2960 Cuts:5 121 39.59%
0+ 0 nan nan -13.7658 -18.5594 nan 34.82%
0 0 -18.3936 9 -13.7658 Cuts:8 126 33.62%
0 0 -18.3158 7 -13.7658 Cuts:6 136 33.05%
0 0 -18.2314 11 -13.7658 Cuts:4 146 32.44%
0+ 0 nan nan -14.1745 -18.2314 nan 28.62%
0 0 -18.2191 9 -14.1745 Cuts:4 153 28.53%
0+ 0 nan nan -15.8276 -18.2191 nan 15.11%
0 0 -18.2177 9 -15.8276 LiftProj:4 155 15.10%
0+ 0 nan nan -16.2202 -18.2177 nan 12.31%
0 2 -18.2098 7 -16.2202 -18.2090 155 12.26%
CPXPARAM_MIP_Cuts_Gomory-Disjunctive-LiftProj:Gomory 4
CPXPARAM_MIP_Cuts_Gomory-Disjunctive-LiftProj:Disjunctive 9
CPXPARAM_MIP_Cuts_Gomory-Disjunctive-LiftProj:LiftProj 0
10
Node Left Objective IInf Best_Integer Best_Bound ItCnt Gap
0+ 0 nan nan 5437.4645 -543.7465 nan 110.00%
0+ 0 nan nan 44.6359 -543.7465 nan ---
0 0 43.7964 4 44.6359 43.7964 101 1.88%
0 0 43.7964 2 44.6359 Disjcuts:2 106 1.88%
0 0 43.7964 2 44.6359 Fract:1 108 1.88%
0+ 0 nan nan 43.8125 43.7964 nan 0.04%
0 0 43.7964 2 43.8125 Fract:1 110 0.04%
0 2 43.7964 2 43.8125 43.7964 110 0.04%
CPXPARAM_MIP_Cuts_Gomory-Disjunctive-LiftProj:Gomory 0
CPXPARAM_MIP_Cuts_Gomory-Disjunctive-LiftProj:Disjunctive 2
CPXPARAM_MIP_Cuts_Gomory-Disjunctive-LiftProj:LiftProj 2
11
Node Left Objective IInf Best_Integer Best_Bound ItCnt Gap
0+ 0 nan nan 4494.1418 -449.4142 nan 110.00%
0+ 0 nan nan -35.8137 -449.4142 nan ---
0 0 -36.6532 2 -35.8137 -36.6532 102 2.34%
0 0 -36.6532 2 -35.8137 Fract:1 108 2.34%
0+ 0 nan nan -36.6299 -36.6532 nan 0.06%
0 2 -36.6532 2 -36.6299 -36.6532 108 0.06%
CPXPARAM_MIP_Cuts_Gomory-Disjunctive-LiftProj:Gomory 0
CPXPARAM_MIP_Cuts_Gomory-Disjunctive-LiftProj:Disjunctive 1
CPXPARAM_MIP_Cuts_Gomory-Disjunctive-LiftProj:LiftProj 0
12
Node Left Objective IInf Best_Integer Best_Bound ItCnt Gap
0+ 0 nan nan 4258.0012 -425.8001 nan 110.00%
0+ 0 nan nan 56.1876 -425.8001 nan 857.82%
0 0 36.5391 10 56.1876 36.5391 103 34.97%
0 0 37.1057 9 56.1876 Cuts:8 118 33.96%
0+ 0 nan nan 51.6308 37.1057 nan 28.13%
0 0 38.1521 9 51.6308 Cuts:14 135 26.11%
0 0 38.3184 11 51.6308 Cuts:9 145 25.78%
0 0 38.7950 11 51.6308 Cuts:14 158 24.86%
0 0 38.9545 11 51.6308 Cuts:9 174 24.55%
0 0 38.9753 12 51.6308 Cuts:5 180 24.51%
0+ 0 nan nan 50.0222 38.9753 nan 22.08%
0 0 39.0084 9 50.0222 Cuts:9 192 22.02%
0+ 0 nan nan 49.5223 39.0084 nan 21.23%
0 0 39.2464 9 49.5223 LiftProj:10 206 20.75%
0+ 0 nan nan 49.3573 39.2464 nan 20.49%
0 0 39.3332 9 49.3573 Cuts:5 211 20.31%
0 0 39.4089 9 49.3573 Cuts:14 218 20.16%
0 0 39.6564 9 49.3573 LiftProj:7 225 19.65%
0 0 39.7955 9 49.3573 LiftProj:7 230 19.37%
0 0 39.8606 9 49.3573 LiftProj:7 235 19.24%
0 0 39.9203 9 49.3573 LiftProj:7 242 19.12%
0 0 39.9612 9 49.3573 LiftProj:6 246 19.04%
0 0 40.0760 9 49.3573 LiftProj:5 256 18.80%
0 0 40.2551 9 49.3573 LiftProj:7 263 18.44%
0 0 40.2577 9 49.3573 LiftProj:4 264 18.44%
0 0 40.3551 9 49.3573 LiftProj:5 269 18.24%
0 0 40.4377 9 49.3573 LiftProj:5 275 18.07%
0 0 40.4683 9 49.3573 LiftProj:6 279 18.01%
0 0 40.4712 9 49.3573 LiftProj:3 281 18.00%
0 2 40.4712 9 49.3573 40.5185 281 17.91%
CPXPARAM_MIP_Cuts_Gomory-Disjunctive-LiftProj:Gomory 13
CPXPARAM_MIP_Cuts_Gomory-Disjunctive-LiftProj:Disjunctive 0
CPXPARAM_MIP_Cuts_Gomory-Disjunctive-LiftProj:LiftProj 0
13
Node Left Objective IInf Best_Integer Best_Bound ItCnt Gap
0+ 0 nan nan 3742.2366 -374.2237 nan 110.00%
0+ 0 nan nan -13.4995 -374.2237 nan ---
0 0 -33.1480 9 -13.4995 -33.1480 92 145.55%
0 0 -32.5772 9 -13.4995 Cuts:10 110 141.32%
0+ 0 nan nan -18.0563 -32.5772 nan 80.42%
0 0 -31.5370 12 -18.0563 Cuts:11 126 74.66%
0 0 -31.4033 12 -18.0563 Cuts:13 141 73.92%
0 0 -31.1771 13 -18.0563 Cuts:14 148 72.67%
0 0 -30.6988 13 -18.0563 Cuts:10 164 70.02%
0 0 -30.6950 17 -18.0563 LiftProj:8 187 70.00%
0 0 -30.6913 15 -18.0563 LiftProj:8 231 69.98%
0 0 -30.4615 12 -18.0563 LiftProj:7 264 68.70%
0 0 -30.4061 15 -18.0563 LiftProj:9 278 68.40%
0 0 -30.4061 11 -18.0563 LiftProj:7 294 68.40%
0+ 0 nan nan -20.1648 -30.4061 nan 50.79%
0 0 -30.3776 13 -20.1648 LiftProj:5 299 50.65%
0 0 -30.2474 17 -20.1648 LiftProj:7 332 50.00%
0 0 -30.2326 17 -20.1648 LiftProj:7 336 49.93%
0 0 -30.2131 17 -20.1648 LiftProj:5 344 49.83%
0 0 -30.1801 19 -20.1648 LiftProj:6 357 49.67%
0 0 -30.1781 14 -20.1648 LiftProj:5 376 49.66%
0 2 -30.1781 13 -20.1648 -30.0971 376 49.26%
CPXPARAM_MIP_Cuts_Gomory-Disjunctive-LiftProj:Gomory 12
CPXPARAM_MIP_Cuts_Gomory-Disjunctive-LiftProj:Disjunctive 3
CPXPARAM_MIP_Cuts_Gomory-Disjunctive-LiftProj:LiftProj 0
14
Node Left Objective IInf Best_Integer Best_Bound ItCnt Gap
0+ 0 nan nan 4547.8366 -454.7837 nan 110.00%
0+ 0 nan nan 37.3980 -454.7837 nan ---
0 0 33.6408 6 37.3980 33.6408 101 10.05%
0 0 33.6408 4 37.3980 Cuts:6 108 10.05%
0 0 33.6408 2 37.3980 Cuts:3 111 10.05%
0 0 33.6408 2 37.3980 Fract:1 113 10.05%
0 0 33.6408 2 37.3980 Fract:1 115 10.05%
0 2 33.6408 2 37.3980 33.6408 115 10.05%
CPXPARAM_MIP_Cuts_Gomory-Disjunctive-LiftProj:Gomory 3
CPXPARAM_MIP_Cuts_Gomory-Disjunctive-LiftProj:Disjunctive 7
CPXPARAM_MIP_Cuts_Gomory-Disjunctive-LiftProj:LiftProj 0
15
Node Left Objective IInf Best_Integer Best_Bound ItCnt Gap
0+ 0 nan nan 4058.6248 -405.8625 nan 110.00%
0+ 0 nan nan -38.8823 -405.8625 nan 943.82%
0 0 -42.6396 4 -38.8823 -42.6396 99 9.66%
0 0 -42.6396 4 -38.8823 Cuts:5 106 9.66%
0 0 -42.6396 4 -38.8823 Fract:1 108 9.66%
0 2 -42.6396 4 -38.8823 -42.6396 108 9.66%
CPXPARAM_MIP_Cuts_Gomory-Disjunctive-LiftProj:Gomory 1
CPXPARAM_MIP_Cuts_Gomory-Disjunctive-LiftProj:Disjunctive 5
CPXPARAM_MIP_Cuts_Gomory-Disjunctive-LiftProj:LiftProj 0
16
Node Left Objective IInf Best_Integer Best_Bound ItCnt Gap
0+ 0 nan nan 4374.4391 -437.4439 nan 110.00%
0+ 0 nan nan 63.6896 -437.4439 nan 786.84%
0 0 42.8442 6 63.6896 42.8442 92 32.73%
0 0 42.8442 6 63.6896 Fract:3 99 32.73%
0+ 0 nan nan 48.7695 42.8442 nan 12.15%
0 0 43.2465 9 48.7695 Fract:2 105 11.32%
0 0 43.8286 9 48.7695 Cuts:6 116 10.13%
0 0 43.9810 9 48.7695 Fract:7 126 9.82%
0 0 44.0879 10 48.7695 Cuts:8 135 9.60%
0 0 44.2095 9 48.7695 Cuts:11 152 9.35%
0 0 44.2130 9 48.7695 LiftProj:3 155 9.34%
0 0 44.2273 9 48.7695 LiftProj:2 160 9.31%
0 0 44.2419 9 48.7695 Cuts:4 165 9.28%
0 0 44.2428 9 48.7695 LiftProj:2 167 9.28%
0 2 44.2696 10 48.7695 44.2883 167 9.19%
CPXPARAM_MIP_Cuts_Gomory-Disjunctive-LiftProj:Gomory 7
CPXPARAM_MIP_Cuts_Gomory-Disjunctive-LiftProj:Disjunctive 6
CPXPARAM_MIP_Cuts_Gomory-Disjunctive-LiftProj:LiftProj 0
17
Node Left Objective IInf Best_Integer Best_Bound ItCnt Gap
0+ 0 nan nan 3327.9222 -332.7922 nan 110.00%
0+ 0 nan nan 7.5964 -332.7922 nan ---
0 0 -13.2491 8 7.5964 -13.2491 85 274.41%
0 0 -13.2366 11 7.5964 Cuts:6 97 274.25%
0+ 0 nan nan -6.7253 -13.2366 nan 96.82%
0 0 -12.3335 8 -6.7253 Cuts:6 108 83.39%
0+ 0 nan nan -7.3238 -12.3335 nan 68.40%
0 0 -12.2510 8 -7.3238 Cuts:7 122 67.28%
0 0 -12.1598 9 -7.3238 Cuts:6 126 66.03%
0 0 -12.0767 9 -7.3238 Cuts:10 139 64.90%
0 0 -12.0473 9 -7.3238 LiftProj:7 144 64.50%
0 0 -12.0257 11 -7.3238 LiftProj:7 151 64.20%
0 0 -12.0165 12 -7.3238 LiftProj:5 173 64.08%
0 0 -12.0136 13 -7.3238 LiftProj:7 180 64.04%
0 0 -11.9732 11 -7.3238 LiftProj:5 198 63.48%
0 0 -11.9467 12 -7.3238 LiftProj:6 203 63.12%
0 0 -11.9467 13 -7.3238 LiftProj:5 210 63.12%
0 0 -11.9304 11 -7.3238 LiftProj:5 216 62.90%
0 0 -11.9300 13 -7.3238 LiftProj:5 221 62.89%
0 2 -11.8860 11 -7.3238 -11.8688 221 62.06%
CPXPARAM_MIP_Cuts_Gomory-Disjunctive-LiftProj:Gomory 8
CPXPARAM_MIP_Cuts_Gomory-Disjunctive-LiftProj:Disjunctive 6
CPXPARAM_MIP_Cuts_Gomory-Disjunctive-LiftProj:LiftProj 0
18
Node Left Objective IInf Best_Integer Best_Bound ItCnt Gap
0+ 0 nan nan 3764.3804 -376.4380 nan 110.00%
0+ 0 nan nan 51.9989 -376.4380 nan 823.93%
0 0 48.9448 2 51.9989 48.9448 90 5.87%
0 0 48.9448 2 51.9989 Fract:1 92 5.87%
0+ 0 nan nan 48.9869 48.9448 nan 0.09%
0+ 0 nan nan 48.9650 48.9448 nan 0.04%
0 2 48.9448 2 48.9650 48.9448 94 0.04%
CPXPARAM_MIP_Cuts_Gomory-Disjunctive-LiftProj:Gomory 0
CPXPARAM_MIP_Cuts_Gomory-Disjunctive-LiftProj:Disjunctive 1
CPXPARAM_MIP_Cuts_Gomory-Disjunctive-LiftProj:LiftProj 0
19
Node Left Objective IInf Best_Integer Best_Bound ItCnt Gap
0+ 0 nan nan 3802.5481 -380.2548 nan 110.00%
0+ 0 nan nan -24.4337 -380.2548 nan ---
0 0 -27.4879 4 -24.4337 -27.4879 91 12.50%
0 0 -27.4879 2 -24.4337 Cuts:3 94 12.50%
0+ 0 nan nan -27.4457 -27.4879 nan 0.15%
0+ 0 nan nan -27.4676 -27.4879 nan 0.07%
0 2 -27.4879 2 -27.4676 -27.4879 98 0.07%
CPXPARAM_MIP_Cuts_Gomory-Disjunctive-LiftProj:Gomory 1
CPXPARAM_MIP_Cuts_Gomory-Disjunctive-LiftProj:Disjunctive 2
CPXPARAM_MIP_Cuts_Gomory-Disjunctive-LiftProj:LiftProj 0
20
Node Left Objective IInf Best_Integer Best_Bound ItCnt Gap
0+ 0 nan nan 3023.0049 -302.3005 nan 110.00%
0+ 0 nan nan 38.6876 -302.3005 nan 881.39%
0 0 28.0444 8 38.6876 28.0444 110 27.51%
0 0 28.0540 11 38.6876 Cuts:7 125 27.49%
0 0 28.7531 9 38.6876 Fract:3 142 25.68%
0+ 0 nan nan 32.3938 28.7531 nan 11.24%
0 0 29.0623 9 32.3938 Cuts:13 158 10.28%
0 0 29.1958 9 32.3938 Cuts:9 173 9.87%
0 0 29.2548 9 32.3938 Cuts:8 191 9.69%
0 0 29.2738 9 32.3938 Cuts:5 199 9.63%
0 0 29.3269 9 32.3938 LiftProj:4 213 9.47%
0 0 29.3640 8 32.3938 LiftProj:3 220 9.35%
0 0 29.4690 9 32.3938 Cuts:9 235 9.03%
0 0 29.4792 9 32.3938 LiftProj:3 242 9.00%
0 0 29.4869 9 32.3938 LiftProj:2 245 8.97%
0 0 29.4947 9 32.3938 LiftProj:3 249 8.95%
0 0 29.6902 9 32.3938 LiftProj:4 262 8.35%
0 0 29.8276 9 32.3938 Cuts:5 277 7.92%
0 0 29.8364 9 32.3938 LiftProj:3 280 7.89%
0 0 29.9231 9 32.3938 LiftProj:4 285 7.63%
0 0 30.0337 9 32.3938 Cuts:5 293 7.29%
0 0 30.2524 9 32.3938 LiftProj:3 301 6.61%
0 0 30.2682 9 32.3938 LiftProj:2 304 6.56%
0 0 30.2763 9 32.3938 LiftProj:3 306 6.54%
0 0 30.3876 9 32.3938 LiftProj:4 310 6.19%
0 0 30.4696 9 32.3938 LiftProj:3 318 5.94%
0 0 30.4734 9 32.3938 LiftProj:1 319 5.93%
0 0 30.5253 9 32.3938 LiftProj:3 325 5.77%
0 0 30.5566 9 32.3938 LiftProj:1 328 5.67%
0 0 30.5609 9 32.3938 LiftProj:3 332 5.66%
0 0 cutoff 32.3938 30.5609 332 5.66% 0
CPXPARAM_MIP_Cuts_Gomory-Disjunctive-LiftProj:Gomory 11
CPXPARAM_MIP_Cuts_Gomory-Disjunctive-LiftProj:Disjunctive 1
CPXPARAM_MIP_Cuts_Gomory-Disjunctive-LiftProj:LiftProj 0
21
Node Left Objective IInf Best_Integer Best_Bound ItCnt Gap
0+ 0 nan nan 3066.6850 -306.6685 nan 110.00%
0+ 0 nan nan -23.0829 -306.6685 nan ---
0 0 -33.7261 13 -23.0829 -33.7261 120 46.11%
0 0 -33.7261 8 -23.0829 Fract:3 127 46.11%
0 0 -32.9148 11 -23.0829 Cuts:6 143 42.59%
0 0 -32.6470 12 -23.0829 Cuts:14 161 41.43%
0+ 0 nan nan -28.2988 -32.6470 nan 15.37%
0 0 -32.4748 12 -28.2988 Cuts:16 176 14.76%
0+ 0 nan nan -29.0417 -32.4748 nan 11.82%
0 0 -32.3497 15 -29.0417 Cuts:6 206 11.39%
0 0 -32.2459 13 -29.0417 Cuts:11 254 11.03%
0 0 -32.2208 18 -29.0417 LiftProj:7 295 10.95%
0 0 -32.2208 21 -29.0417 LiftProj:6 303 10.95%
0 0 -32.2208 18 -29.0417 LiftProj:3 310 10.95%
0 2 -32.1882 12 -29.0417 -32.1831 310 10.82%
CPXPARAM_MIP_Cuts_Gomory-Disjunctive-LiftProj:Gomory 5
CPXPARAM_MIP_Cuts_Gomory-Disjunctive-LiftProj:Disjunctive 6
CPXPARAM_MIP_Cuts_Gomory-Disjunctive-LiftProj:LiftProj 0
22
Node Left Objective IInf Best_Integer Best_Bound ItCnt Gap
0+ 0 nan nan 3115.9138 -311.5914 nan 110.00%
0+ 0 nan nan 28.6729 -311.5914 nan ---
0 0 27.1153 4 28.6729 27.1153 103 5.43%
0 0 27.1153 2 28.6729 Cuts:4 108 5.43%
0 0 27.1153 2 28.6729 Fract:1 110 5.43%
0 0 27.1153 2 28.6729 Fract:1 112 5.43%
0 2 27.1153 2 28.6729 27.1153 112 5.43%
CPXPARAM_MIP_Cuts_Gomory-Disjunctive-LiftProj:Gomory 1
CPXPARAM_MIP_Cuts_Gomory-Disjunctive-LiftProj:Disjunctive 5
CPXPARAM_MIP_Cuts_Gomory-Disjunctive-LiftProj:LiftProj 0
23
Node Left Objective IInf Best_Integer Best_Bound ItCnt Gap
0+ 0 nan nan 3219.7432 -321.9743 nan 110.00%
0+ 0 nan nan -36.7602 -321.9743 nan 775.88%
0 0 -38.3178 9 -36.7602 -38.3178 128 4.24%
0 0 -38.3178 6 -36.7602 Cuts:14 140 4.24%
0 0 -38.3178 4 -36.7602 Cuts:6 148 4.24%
0 0 -38.3178 2 -36.7602 Cuts:3 151 4.24%
0 0 -38.3178 2 -36.7602 Fract:1 153 4.24%
0 2 -38.3178 2 -36.7602 -38.3178 153 4.24%
CPXPARAM_MIP_Cuts_Gomory-Disjunctive-LiftProj:Gomory 9
CPXPARAM_MIP_Cuts_Gomory-Disjunctive-LiftProj:Disjunctive 13
CPXPARAM_MIP_Cuts_Gomory-Disjunctive-LiftProj:LiftProj 0
24
Node Left Objective IInf Best_Integer Best_Bound ItCnt Gap
0+ 0 nan nan 3687.2890 -368.7289 nan 110.00%
0+ 0 nan nan 43.2506 -368.7289 nan 952.54%
0 0 31.9673 10 43.2506 31.9673 102 26.09%
0 0 32.0126 8 43.2506 Fract:5 114 25.98%
0 0 32.4303 8 43.2506 Fract:5 127 25.02%
0+ 0 nan nan 39.4230 32.4303 nan 17.74%
0 0 32.7723 9 39.4230 Cuts:5 136 16.87%
0+ 0 nan nan 37.0340 32.7723 nan 11.51%
0 0 32.8325 8 37.0340 Cuts:5 142 11.34%
0 0 32.8918 9 37.0340 Cuts:3 152 11.18%
0+ 0 nan nan 35.4872 32.8918 nan 7.31%
0 0 32.9091 9 35.4872 Cuts:5 158 7.26%
0 0 32.9118 9 35.4872 LiftProj:3 161 7.26%
0 0 32.9217 9 35.4872 LiftProj:6 167 7.23%
0 0 33.0022 8 35.4872 Cuts:6 178 7.00%
0 0 33.1019 9 35.4872 Cuts:5 185 6.72%
0 0 33.1205 9 35.4872 LiftProj:2 188 6.67%
0 0 33.1242 9 35.4872 LiftProj:2 189 6.66%
0 0 33.2152 9 35.4872 LiftProj:5 200 6.40%
0 0 33.2432 9 35.4872 LiftProj:3 207 6.32%
0 0 33.3234 9 35.4872 LiftProj:4 214 6.10%
0 0 33.3441 9 35.4872 LiftProj:4 221 6.04%
0 2 33.3998 7 35.4872 33.4215 221 5.82%
CPXPARAM_MIP_Cuts_Gomory-Disjunctive-LiftProj:Gomory 10
CPXPARAM_MIP_Cuts_Gomory-Disjunctive-LiftProj:Disjunctive 4
CPXPARAM_MIP_Cuts_Gomory-Disjunctive-LiftProj:LiftProj 0
25
Node Left Objective IInf Best_Integer Best_Bound ItCnt Gap
0+ 0 nan nan 3761.3434 -376.1343 nan 110.00%
0+ 0 nan nan -32.7168 -376.1343 nan ---
0 0 -44.0001 9 -32.7168 -44.0001 119 34.49%
0 0 -43.9545 13 -32.7168 Cuts:9 142 34.35%
0 0 -43.5369 16 -32.7168 Cuts:10 157 33.07%
0+ 0 nan nan -35.8571 -43.5369 nan 21.42%
0 0 -43.1950 19 -35.8571 Cuts:10 172 20.46%
0 0 -43.1405 16 -35.8571 Cuts:9 201 20.31%
0 0 -43.1004 21 -35.8571 LiftProj:7 219 20.20%
0 0 -43.0887 19 -35.8571 Cuts:9 231 20.17%
0 0 -43.0735 25 -35.8571 Cuts:8 243 20.13%
0 0 -43.0726 27 -35.8571 LiftProj:11 250 20.12%
0 0 -43.0173 17 -35.8571 LiftProj:8 274 19.97%
0+ 0 nan nan -38.7014 -43.0173 nan 11.15%
0 0 -43.0097 18 -38.7014 LiftProj:6 282 11.13%
0 0 -43.0017 16 -38.7014 LiftProj:3 287 11.11%
0+ 0 nan nan -39.8037 -43.0017 nan 8.03%
0 0 -42.9570 18 -39.8037 LiftProj:8 294 7.92%
0 0 -42.9561 19 -39.8037 LiftProj:3 300 7.92%
0+ 0 nan nan -40.4803 -42.9561 nan 6.12%
0 2 -42.8927 12 -40.4803 -42.8697 300 5.90%
CPXPARAM_MIP_Cuts_Gomory-Disjunctive-LiftProj:Gomory 8
CPXPARAM_MIP_Cuts_Gomory-Disjunctive-LiftProj:Disjunctive 4
CPXPARAM_MIP_Cuts_Gomory-Disjunctive-LiftProj:LiftProj 0
26
Node Left Objective IInf Best_Integer Best_Bound ItCnt Gap
0+ 0 nan nan 3711.4466 -371.1447 nan 110.00%
0+ 0 nan nan 33.2793 -371.1447 nan ---
0 0 31.7258 2 33.2793 31.7258 133 4.67%
0+ 0 nan nan 33.1336 31.7258 nan 4.25%
0 0 31.7258 2 33.1336 Fract:2 137 4.25%
0 0 31.7258 2 33.1336 Fract:1 139 4.25%
0 2 31.7258 2 33.1336 31.7258 139 4.25%
CPXPARAM_MIP_Cuts_Gomory-Disjunctive-LiftProj:Gomory 0
CPXPARAM_MIP_Cuts_Gomory-Disjunctive-LiftProj:Disjunctive 3
CPXPARAM_MIP_Cuts_Gomory-Disjunctive-LiftProj:LiftProj 0
27
Node Left Objective IInf Best_Integer Best_Bound ItCnt Gap
0+ 0 nan nan 3421.5786 -342.1579 nan 110.00%
0 0 -33.8071 9 3421.5786 -33.8071 110 100.99%
0+ 0 nan nan -30.4260 -33.8071 nan 11.11%
0 0 -33.8071 2 -30.4260 Cuts:12 121 11.11%
0 0 -33.8071 2 -30.4260 Cuts:2 123 11.11%
0 0 -33.8071 2 -30.4260 Cuts:2 125 11.11%
0+ 0 nan nan -32.3726 -33.8071 nan 4.43%
0 2 -33.8071 2 -32.3726 -33.8071 125 4.43%
CPXPARAM_MIP_Cuts_Gomory-Disjunctive-LiftProj:Gomory 4
CPXPARAM_MIP_Cuts_Gomory-Disjunctive-LiftProj:Disjunctive 4
CPXPARAM_MIP_Cuts_Gomory-Disjunctive-LiftProj:LiftProj 8
28
Node Left Objective IInf Best_Integer Best_Bound ItCnt Gap
0+ 0 nan nan 4639.1808 -463.9181 nan 110.00%
0+ 0 nan nan 65.2464 -463.9181 nan 811.02%
0 0 58.0744 8 65.2464 58.0744 92 10.99%
0 0 58.0872 9 65.2464 Fract:4 101 10.97%
0 0 58.7818 9 65.2464 Fract:5 114 9.91%
0 0 59.0991 9 65.2464 Cuts:10 122 9.42%
0 0 59.2184 12 65.2464 Cuts:12 130 9.24%
0 0 59.3375 11 65.2464 Cuts:9 149 9.06%
0 0 59.3566 14 65.2464 Cuts:7 159 9.03%
0 0 59.4103 11 65.2464 Cuts:4 171 8.94%
0 0 59.4176 15 65.2464 Cuts:5 187 8.93%
0 0 59.4334 13 65.2464 LiftProj:2 194 8.91%
0 0 59.4334 14 65.2464 LiftProj:3 197 8.91%
0 0 59.4503 9 65.2464 LiftProj:3 205 8.88%
0 0 59.4704 9 65.2464 Cuts:7 214 8.85%
0 0 59.4772 12 65.2464 Cuts:7 219 8.84%
0 2 59.5450 10 65.2464 59.5509 219 8.73%
CPXPARAM_MIP_Cuts_Gomory-Disjunctive-LiftProj:Gomory 6
CPXPARAM_MIP_Cuts_Gomory-Disjunctive-LiftProj:Disjunctive 8
CPXPARAM_MIP_Cuts_Gomory-Disjunctive-LiftProj:LiftProj 0
29
Node Left Objective IInf Best_Integer Best_Bound ItCnt Gap
0+ 0 nan nan 3694.7313 -369.4731 nan 110.00%
0+ 0 nan nan 0.7963 -369.4731 nan ---
0 0 -6.3757 11 0.7963 -6.3757 101 900.69%
0 0 -6.3684 12 0.7963 Cuts:8 118 899.77%
0 0 -5.6787 12 0.7963 Cuts:8 130 813.15%
0 0 -5.2606 13 0.7963 Cuts:12 148 760.65%
0 0 -5.2161 14 0.7963 Cuts:9 191 755.05%
0 0 -5.1704 14 0.7963 Cuts:18 213 749.32%
0 0 -5.1122 17 0.7963 Cuts:9 227 742.00%
0 0 -5.1041 13 0.7963 Cuts:6 241 740.99%
0 0 -5.1039 18 0.7963 LiftProj:9 248 740.97%
0 0 -5.1032 12 0.7963 LiftProj:4 255 740.87%
0 0 -5.0977 13 0.7963 LiftProj:1 258 740.19%
0 0 -5.0977 13 0.7963 LiftProj:1 261 740.19%
0 2 -5.0474 11 0.7963 -5.0433 261 733.36%
CPXPARAM_MIP_Cuts_Gomory-Disjunctive-LiftProj:Gomory 5
CPXPARAM_MIP_Cuts_Gomory-Disjunctive-LiftProj:Disjunctive 8
CPXPARAM_MIP_Cuts_Gomory-Disjunctive-LiftProj:LiftProj 0
30
Node Left Objective IInf Best_Integer Best_Bound ItCnt Gap
0+ 0 nan nan 4002.5073 -400.2507 nan 110.00%
0+ 0 nan nan 65.9595 -400.2507 nan 706.81%
0 0 64.4411 2 65.9595 64.4411 95 2.30%
0+ 0 nan nan 65.3965 64.4411 nan 1.46%
0 0 64.4411 2 65.3965 Fract:1 97 1.46%
0+ 0 nan nan 64.4435 64.4411 nan 0.00%
CPXPARAM_MIP_Cuts_Gomory-Disjunctive-LiftProj:Gomory 0
CPXPARAM_MIP_Cuts_Gomory-Disjunctive-LiftProj:Disjunctive 1
CPXPARAM_MIP_Cuts_Gomory-Disjunctive-LiftProj:LiftProj 0
31
Node Left Objective IInf Best_Integer Best_Bound ItCnt Gap
0+ 0 nan nan 4093.9107 -409.3911 nan 110.00%
0+ 0 nan nan -16.8328 -409.3911 nan ---
0 0 -18.3511 8 -16.8328 -18.3511 99 9.02%
0+ 0 nan nan -17.0665 -18.3511 nan 7.53%
0 0 -18.3511 4 -17.0665 Cuts:13 111 7.53%
0+ 0 nan nan -18.0441 -18.3511 nan 1.70%
0 0 -18.3511 2 -18.0441 Cuts:3 112 1.70%
0+ 0 nan nan -18.3487 -18.3511 nan 0.01%
0 2 -18.3511 2 -18.3487 -18.3511 116 0.01%
CPXPARAM_MIP_Cuts_Gomory-Disjunctive-LiftProj:Gomory 6
CPXPARAM_MIP_Cuts_Gomory-Disjunctive-LiftProj:Disjunctive 8
CPXPARAM_MIP_Cuts_Gomory-Disjunctive-LiftProj:LiftProj 0
32
Node Left Objective IInf Best_Integer Best_Bound ItCnt Gap
0+ 0 nan nan 2782.2146 -278.2215 nan 110.00%
0+ 0 nan nan 51.8003 -278.2215 nan 637.10%
0 0 40.6477 6 51.8003 40.6477 100 21.53%
0 0 40.7453 8 51.8003 Fract:5 113 21.34%
0 0 41.2736 9 51.8003 Cuts:6 127 20.32%
0+ 0 nan nan 50.1715 41.2736 nan 17.73%
0 0 41.4812 9 50.1715 Cuts:7 136 17.32%
0 0 41.6424 9 50.1715 Cuts:5 144 17.00%
0+ 0 nan nan 44.9280 41.6424 nan 7.31%
0 0 41.6988 9 44.9280 Cuts:6 150 7.19%
0 0 41.7361 9 44.9280 Cuts:2 156 7.10%
0 0 41.7507 9 44.9280 LiftProj:3 161 7.07%
0 0 41.7690 9 44.9280 LiftProj:2 164 7.03%
0 0 41.8785 9 44.9280 Cuts:4 174 6.79%
0 0 41.8962 9 44.9280 LiftProj:4 183 6.75%
0 0 41.9063 9 44.9280 Cuts:4 187 6.73%
0 0 42.0034 9 44.9280 LiftProj:4 200 6.51%
0 0 42.0708 9 44.9280 Cuts:4 209 6.36%
0 0 42.0995 9 44.9280 LiftProj:5 216 6.30%
0 0 42.1210 9 44.9280 LiftProj:1 225 6.25%
0 0 42.1800 9 44.9280 Cuts:7 237 6.12%
0 0 42.1973 9 44.9280 LiftProj:2 242 6.08%
0 0 42.2077 9 44.9280 LiftProj:3 249 6.05%
0 0 42.2368 9 44.9280 LiftProj:3 257 5.99%
0 0 42.2501 9 44.9280 LiftProj:1 262 5.96%
0 2 42.4015 6 44.9280 42.4123 262 5.60%
CPXPARAM_MIP_Cuts_Gomory-Disjunctive-LiftProj:Gomory 12
CPXPARAM_MIP_Cuts_Gomory-Disjunctive-LiftProj:Disjunctive 1
CPXPARAM_MIP_Cuts_Gomory-Disjunctive-LiftProj:LiftProj 0
33
Node Left Objective IInf Best_Integer Best_Bound ItCnt Gap
0+ 0 nan nan 3349.6902 -334.9690 nan 110.00%
0+ 0 nan nan -20.8683 -334.9690 nan ---
0 0 -32.0209 8 -20.8683 -32.0209 98 53.44%
0 0 -31.9222 11 -20.8683 Cuts:8 114 52.97%
0 0 -31.2971 11 -20.8683 Cuts:10 155 49.97%
0+ 0 nan nan -27.7388 -31.2971 nan 12.83%
0 0 -31.0674 12 -27.7388 Cuts:8 174 12.00%
0 0 -30.8664 11 -27.7388 Cuts:6 187 11.28%
0 0 -30.8159 11 -27.7388 Cuts:4 199 11.09%
0+ 0 nan nan -27.7405 -30.8159 nan 11.09%
0 0 -30.8159 11 -27.7405 LiftProj:1 200 11.09%
0 2 -30.8074 9 -27.7405 -30.7987 200 11.02%
CPXPARAM_MIP_Cuts_Gomory-Disjunctive-LiftProj:Gomory 2
CPXPARAM_MIP_Cuts_Gomory-Disjunctive-LiftProj:Disjunctive 9
CPXPARAM_MIP_Cuts_Gomory-Disjunctive-LiftProj:LiftProj 0
34
Node Left Objective IInf Best_Integer Best_Bound ItCnt Gap
0+ 0 nan nan 3811.0022 -381.1002 nan 110.00%
0+ 0 nan nan 40.8428 -381.1002 nan ---
0 0 30.3598 2 40.8428 30.3598 97 25.67%
0+ 0 nan nan 32.0719 30.3598 nan 5.34%
0 0 30.3598 2 32.0719 Fract:2 101 5.34%
0 0 30.3598 2 32.0719 Fract:1 103 5.34%
0+ 0 nan nan 31.0718 30.3598 nan 2.29%
0 2 30.3598 2 31.0718 30.3598 103 2.29%
CPXPARAM_MIP_Cuts_Gomory-Disjunctive-LiftProj:Gomory 0
CPXPARAM_MIP_Cuts_Gomory-Disjunctive-LiftProj:Disjunctive 3
CPXPARAM_MIP_Cuts_Gomory-Disjunctive-LiftProj:LiftProj 0
35
Node Left Objective IInf Best_Integer Best_Bound ItCnt Gap
0+ 0 nan nan 3356.6483 -335.6648 nan 110.00%
0+ 0 nan nan -21.7467 -335.6648 nan ---
0 0 -32.2296 2 -21.7467 -32.2296 127 48.21%
0+ 0 nan nan -30.5175 -32.2296 nan 5.61%
0 0 -32.2296 2 -30.5175 Fract:2 131 5.61%
0 0 -32.2296 2 -30.5175 Fract:1 133 5.61%
0+ 0 nan nan -31.5176 -32.2296 nan 2.26%
0 2 -32.2296 2 -31.5176 -32.2296 133 2.26%
CPXPARAM_MIP_Cuts_Gomory-Disjunctive-LiftProj:Gomory 0
CPXPARAM_MIP_Cuts_Gomory-Disjunctive-LiftProj:Disjunctive 3
CPXPARAM_MIP_Cuts_Gomory-Disjunctive-LiftProj:LiftProj 0
36
Node Left Objective IInf Best_Integer Best_Bound ItCnt Gap
0+ 0 nan nan 4588.3495 -458.8350 nan 110.00%
0+ 0 nan nan 49.9629 -458.8350 nan ---
0 0 35.1558 9 49.9629 35.1558 105 29.64%
0 0 35.1573 11 49.9629 Cuts:8 118 29.63%
0 0 35.7727 12 49.9629 Fract:4 131 28.40%
0 0 36.0079 11 49.9629 Cuts:16 144 27.93%
0 0 36.1276 13 49.9629 Cuts:14 159 27.69%
0+ 0 nan nan 46.9349 36.1276 nan 23.03%
0 0 36.2429 11 46.9349 Cuts:10 172 22.78%
0+ 0 nan nan 45.5806 36.2429 nan 20.49%
0 0 36.2625 13 45.5806 Cuts:7 186 20.44%
0 0 36.2772 13 45.5806 Cuts:5 190 20.41%
0 0 36.2999 11 45.5806 LiftProj:7 206 20.36%
0 0 36.3227 12 45.5806 Cuts:4 214 20.31%
0 0 36.3726 12 45.5806 Cuts:6 226 20.20%
0 0 36.4355 12 45.5806 LiftProj:6 235 20.06%
0 0 36.4920 11 45.5806 Cuts:7 246 19.94%
0+ 0 nan nan 45.2822 36.4920 nan 19.41%
0 0 36.5224 9 45.2822 Cuts:10 254 19.34%
0 0 36.5383 9 45.2822 LiftProj:6 263 19.31%
0 0 36.7073 9 45.2822 LiftProj:9 276 18.94%
0+ 0 nan nan 42.0489 36.7073 nan 12.70%
0 0 36.7903 9 42.0489 Cuts:11 281 12.51%
0 0 37.3712 9 42.0489 LiftProj:10 296 11.12%
0 0 37.5123 9 42.0489 LiftProj:5 304 10.79%
0 0 37.5949 9 42.0489 LiftProj:6 309 10.59%
0 0 37.7302 9 42.0489 LiftProj:3 318 10.27%
0 0 37.7558 9 42.0489 LiftProj:6 323 10.21%
0 0 37.7660 9 42.0489 LiftProj:3 326 10.19%
0 0 37.8085 9 42.0489 LiftProj:4 329 10.08%
0 0 37.8196 12 42.0489 LiftProj:6 334 10.06%
0 0 37.8470 13 42.0489 LiftProj:5 351 9.99%
0 0 37.8608 14 42.0489 LiftProj:6 354 9.96%
0 0 37.9012 11 42.0489 LiftProj:4 363 9.86%
0 0 37.9136 11 42.0489 LiftProj:6 364 9.83%
0 0 38.0188 9 42.0489 LiftProj:6 370 9.58%
0 0 38.0406 9 42.0489 LiftProj:4 376 9.53%
0 0 38.0801 9 42.0489 LiftProj:4 377 9.44%
0 0 38.1845 9 42.0489 LiftProj:6 385 9.19%
0 0 38.2416 9 42.0489 LiftProj:6 391 9.05%
0 0 38.2881 9 42.0489 LiftProj:9 395 8.94%
0 0 38.3410 9 42.0489 LiftProj:8 401 8.82%
0 0 38.3423 9 42.0489 LiftProj:1 403 8.81%
0 0 38.3635 9 42.0489 LiftProj:4 408 8.76%
0 0 38.3868 9 42.0489 LiftProj:3 412 8.71%
0 0 38.4340 9 42.0489 LiftProj:4 419 8.60%
0 0 38.4644 9 42.0489 LiftProj:4 423 8.52%
0 0 38.4667 9 42.0489 LiftProj:4 426 8.52%
0 2 38.4687 8 42.0489 38.4838 426 8.48%
CPXPARAM_MIP_Cuts_Gomory-Disjunctive-LiftProj:Gomory 17
CPXPARAM_MIP_Cuts_Gomory-Disjunctive-LiftProj:Disjunctive 0
CPXPARAM_MIP_Cuts_Gomory-Disjunctive-LiftProj:LiftProj 0
37
Node Left Objective IInf Best_Integer Best_Bound ItCnt Gap
0+ 0 nan nan 4450.7541 -445.0754 nan 110.00%
0+ 0 nan nan -37.6763 -445.0754 nan ---
0 0 -52.4834 11 -37.6763 -52.4834 108 39.30%
0 0 -52.4834 9 -37.6763 Cuts:11 121 39.30%
0 0 -52.0475 13 -37.6763 Cuts:9 140 38.14%
0 0 -51.6162 14 -37.6763 Cuts:19 156 37.00%
0 0 -51.5196 12 -37.6763 Cuts:14 169 36.74%
0+ 0 nan nan -43.7613 -51.5196 nan 17.73%
0 0 -51.4991 12 -43.7613 Cuts:4 177 17.68%
0 0 -51.4650 11 -43.7613 Cuts:15 193 17.60%
0 0 -51.4638 18 -43.7613 LiftProj:4 223 17.60%
0 0 -51.4566 17 -43.7613 Cuts:7 237 17.58%
0 0 -51.4560 21 -43.7613 LiftProj:6 248 17.58%
0 2 -51.4560 21 -43.7613 -51.4526 248 17.58%
CPXPARAM_MIP_Cuts_Gomory-Disjunctive-LiftProj:Gomory 6
CPXPARAM_MIP_Cuts_Gomory-Disjunctive-LiftProj:Disjunctive 9
CPXPARAM_MIP_Cuts_Gomory-Disjunctive-LiftProj:LiftProj 0
38
Node Left Objective IInf Best_Integer Best_Bound ItCnt Gap
0+ 0 nan nan 3824.8352 -382.4835 nan 110.00%
0 0 42.7909 4 3824.8352 42.7909 97 98.88%
0+ 0 nan nan 45.2604 42.7909 nan 5.46%
0 0 42.7909 2 45.2604 Cuts:6 102 5.46%
0 0 42.7909 2 45.2604 Cuts:2 104 5.46%
0+ 0 nan nan 44.4764 42.7909 nan 3.79%
0 0 42.7909 2 44.4764 Fract:1 106 3.79%
0 2 42.7909 2 44.4764 42.7909 106 3.79%
CPXPARAM_MIP_Cuts_Gomory-Disjunctive-LiftProj:Gomory 1
CPXPARAM_MIP_Cuts_Gomory-Disjunctive-LiftProj:Disjunctive 3
CPXPARAM_MIP_Cuts_Gomory-Disjunctive-LiftProj:LiftProj 5
39
Node Left Objective IInf Best_Integer Best_Bound ItCnt Gap
0+ 0 nan nan 4523.6595 -452.3660 nan 110.00%
0+ 0 nan nan -52.2183 -452.3660 nan 766.30%
0 0 -54.6705 7 -52.2183 -54.6705 107 4.70%
0 0 -54.6705 4 -52.2183 Cuts:12 119 4.70%
0 0 -54.6705 2 -52.2183 Cuts:3 122 4.70%
0+ 0 nan nan -52.5794 -54.6705 nan 3.98%
0 0 -54.6705 2 -52.5794 Fract:1 124 3.98%
0 0 -54.6705 2 -52.5794 Fract:1 126 3.98%
0 2 -54.6705 2 -52.5794 -54.6705 126 3.98%
CPXPARAM_MIP_Cuts_Gomory-Disjunctive-LiftProj:Gomory 5
CPXPARAM_MIP_Cuts_Gomory-Disjunctive-LiftProj:Disjunctive 10
CPXPARAM_MIP_Cuts_Gomory-Disjunctive-LiftProj:LiftProj 0
